c Result of efficient AIG-to-CNF conversion using package CNF
p cnf 318 1043
-2 3 73 136 212 0
2 -3 0
2 -212 0
2 -136 0
2 -73 0
3 4 -7 0
3 4 43 -45 0
-3 -4 0
-3 7 45 0
-3 7 -43 0
-4 299 5 0
4 -299 0
4 -5 0
-5 311 312 313 6 0
5 -6 0
5 -313 0
5 -311 0
5 -312 0
-6 309 310 0
6 -309 0
6 -310 0
7 8 -23 0
7 8 -9 -13 0
-7 -8 0
-7 9 23 0
-7 13 23 0
-8 286 287 0
8 -286 0
8 -287 0
9 -284 10 11 12 0
-9 -12 0
-9 284 0
-9 -11 0
-9 -10 0
-10 288 289 0
10 -288 0
10 -289 0
-11 294 295 0
11 -294 0
11 -295 0
-12 303 304 0
12 -303 0
12 -304 0
13 14 15 17 -22 0
-13 22 0
-13 -14 0
-13 -17 0
-13 -15 0
-14 305 306 307 308 0
14 -308 0
14 -307 0
14 -305 0
14 -306 0
-15 298 16 0
15 -298 0
15 -16 0
-16 296 297 0
16 -296 0
16 -297 0
-17 18 20 0
17 -18 0
17 -20 0
-18 290 291 19 0
18 -19 0
18 -291 0
18 -290 0
-19 292 293 0
19 -292 0
19 -293 0
-20 302 21 0
20 -302 0
20 -21 0
-21 300 301 0
21 -300 0
21 -301 0
22 314 315 316 -317 0
-22 317 0
-22 -316 0
-22 -314 0
-22 -315 0
23 -24 40 42 0
23 -28 40 42 0
-23 -42 0
-23 -40 0
-23 24 28 0
24 -282 -25 26 0
-24 282 0
-24 25 0
-24 -26 0
25 314 315 -316 0
-25 316 0
-25 -315 0
-25 -314 0
-26 15 27 0
26 -15 0
26 -27 0
-27 290 10 0
27 -290 0
27 -10 0
28 -29 39 0
28 -277 -37 39 0
-28 -39 0
-28 29 37 0
-28 277 29 0
29 -275 -30 0
-29 275 0
-29 30 0
30 315 -31 0
30 -315 -34 0
-30 -315 34 0
-30 315 31 0
31 316 -32 0
31 -316 -33 0
-31 -316 33 0
-31 316 32 0
32 -308 -317 0
32 -307 317 0
-32 307 317 0
-32 308 -317 0
33 -310 -317 0
33 -309 317 0
-33 309 317 0
-33 310 -317 0
34 316 -35 0
34 -316 -36 0
-34 -316 36 0
-34 316 35 0
35 -312 -317 0
35 -311 317 0
-35 311 317 0
-35 312 -317 0
36 -314 -317 0
36 -313 317 0
-36 313 317 0
-36 314 -317 0
37 -315 -316 0
37 315 -38 0
37 -315 -36 0
-37 315 38 0
-37 -315 316 36 0
38 316 -33 0
38 -316 -35 0
-38 -316 35 0
-38 316 33 0
-39 314 15 27 0
39 -27 0
39 -15 0
39 -314 0
-40 14 41 0
40 -14 0
40 -41 0
-41 11 19 0
41 -11 0
41 -19 0
-42 291 12 20 0
42 -20 0
42 -12 0
42 -291 0
-43 295 44 0
43 -295 0
43 -44 0
-44 306 307 308 0
44 -306 0
44 -308 0
44 -307 0
-45 46 70 0
-45 46 64 0
-45 -8 46 0
45 -46 0
45 8 -64 -70 0
46 47 48 -50 -62 0
-46 62 0
-46 -47 0
-46 50 0
-46 -48 0
-47 305 12 20 0
47 -20 0
47 -12 0
47 -305 0
-48 290 49 0
48 -290 0
48 -49 0
-49 294 19 0
49 -294 0
49 -19 0
50 314 -51 0
50 -314 -58 0
-50 -314 58 0
-50 314 51 0
51 315 -52 0
51 -315 -55 0
-51 -315 55 0
-51 315 52 0
52 316 -53 0
52 -316 -54 0
-52 -316 54 0
-52 316 53 0
53 -305 -317 0
53 -304 317 0
-53 304 317 0
-53 305 -317 0
54 -307 -317 0
54 -306 317 0
-54 306 317 0
-54 307 -317 0
55 316 -56 0
55 -316 -57 0
-55 -316 57 0
-55 316 56 0
56 -309 -317 0
56 -308 317 0
-56 308 317 0
-56 309 -317 0
57 -311 -317 0
57 -310 317 0
-57 310 317 0
-57 311 -317 0
58 315 -59 0
58 -315 316 -317 0
-58 -315 -316 0
-58 315 59 0
-58 -315 317 0
59 -316 -60 0
59 316 -61 0
-59 316 61 0
-59 -316 60 0
60 -315 -317 0
60 -314 317 0
-60 314 317 0
-60 315 -317 0
61 -313 -317 0
61 -312 317 0
-61 312 317 0
-61 313 -317 0
62 -272 291 15 63 0
-62 -63 0
-62 272 0
-62 -15 0
-62 -291 0
-63 8 10 0
63 -8 0
63 -10 0
64 314 -65 0
64 -314 -68 0
-64 -314 68 0
-64 314 65 0
65 -315 -38 0
65 315 -66 0
-65 315 66 0
-65 -315 38 0
66 -316 -32 0
66 316 -67 0
-66 316 67 0
-66 -316 32 0
67 -306 -317 0
67 -305 317 0
-67 305 317 0
-67 306 -317 0
68 315 -69 0
-68 -315 0
-68 69 0
69 -315 -316 0
69 316 -36 0
69 -316 -317 0
-69 316 36 0
-69 315 -316 317 0
70 -273 27 49 71 0
-70 -71 0
-70 273 0
-70 -49 0
-70 -27 0
-71 291 72 0
71 -291 0
71 -72 0
-72 15 47 0
72 -15 0
72 -47 0
-73 74 104 110 131 0
73 -131 0
73 -110 0
73 -74 0
73 -104 0
-74 75 95 0
-74 -4 75 0
-74 -63 75 0
74 -75 0
74 4 63 -95 0
75 314 -76 -84 0
75 -76 -83 -84 0
-75 84 0
-75 76 0
-75 -314 83 0
76 77 -79 0
76 77 -78 0
-76 -77 0
-76 78 79 0
-77 302 12 0
77 -302 0
77 -12 0
-78 313 314 0
78 -313 0
78 -314 0
79 -315 -52 0
79 315 -80 0
-79 315 80 0
-79 -315 52 0
80 316 -81 0
80 -316 -82 0
-80 -316 82 0
-80 316 81 0
81 -301 -317 0
81 -300 317 0
-81 300 317 0
-81 301 -317 0
82 -303 -317 0
82 -302 317 0
-82 302 317 0
-82 303 -317 0
83 315 -55 0
83 -315 -59 0
-83 -315 59 0
-83 315 55 0
84 85 88 89 -94 0
-84 94 0
-84 -85 0
-84 -89 0
-84 -88 0
-85 292 86 0
85 -292 0
85 -86 0
-86 8 87 0
86 -8 0
86 -87 0
-87 290 291 10 0
87 -10 0
87 -291 0
87 -290 0
-88 309 310 14 0
88 -14 0
88 -310 0
88 -309 0
-89 -22 90 0
-89 313 90 0
89 -90 0
89 -313 22 0
-90 91 93 0
90 -91 0
90 -93 0
-91 16 92 0
91 -16 0
91 -92 0
-92 298 299 0
92 -298 0
92 -299 0
-93 11 21 0
93 -11 0
93 -21 0
94 -268 293 311 312 0
-94 -312 0
-94 -311 0
-94 268 0
-94 -293 0
95 43 48 71 -96 0
-95 -71 0
-95 96 0
-95 -43 0
-95 -48 0
-96 97 99 0
-96 274 276 0
-96 276 99 0
-96 274 97 0
96 -276 -97 0
96 -274 -99 0
97 314 -83 0
97 -314 315 -98 0
-97 -314 -315 0
-97 314 83 0
-97 -314 98 0
98 316 -317 0
-98 -316 0
-98 317 0
99 -314 -100 0
99 314 -101 0
-99 314 101 0
-99 -314 100 0
100 315 -316 0
100 -314 315 317 0
-100 -315 0
-100 316 -317 0
-100 314 316 0
101 315 -102 0
101 -315 -103 0
-101 -315 103 0
-101 315 102 0
102 316 -54 0
102 -316 -56 0
-102 -316 56 0
-102 316 54 0
103 316 -57 0
103 -316 -61 0
-103 -316 61 0
-103 316 57 0
104 26 -105 108 109 0
-104 -109 0
-104 -26 0
-104 -108 0
-104 105 0
-105 106 107 0
-105 280 281 0
-105 281 107 0
-105 280 106 0
105 -281 -106 0
105 -280 -107 0
106 314 -68 0
-106 -314 0
-106 68 0
107 314 -58 0
-107 -314 0
-107 58 0
-108 287 4 42 0
108 -42 0
108 -4 0
108 -287 0
-109 286 40 0
109 -286 0
109 -40 0
110 313 -111 0
110 314 -37 -111 0
-110 111 0
-110 -313 37 0
-110 -313 -314 0
111 -78 -119 127 0
111 -112 -119 127 0
-111 -127 0
-111 119 0
-111 78 112 0
112 315 -113 0
112 -315 -116 0
-112 -315 116 0
-112 315 113 0
113 316 -114 0
113 -316 -115 0
-113 -316 115 0
-113 316 114 0
114 -294 -317 0
114 -293 317 0
-114 293 317 0
-114 294 -317 0
115 -296 -317 0
115 -295 317 0
-115 295 317 0
-115 296 -317 0
116 316 -117 0
116 -316 -118 0
-116 -316 118 0
-116 316 117 0
117 -298 -317 0
117 -297 317 0
-117 297 317 0
-117 298 -317 0
118 -300 -317 0
118 -299 317 0
-118 299 317 0
-118 300 -317 0
119 -261 314 124 0
119 -261 -120 124 0
-119 -124 0
-119 261 0
-119 -314 120 0
120 -315 -66 0
120 315 -121 0
-120 315 121 0
-120 -315 66 0
121 316 -122 0
121 -316 -123 0
-121 -316 123 0
-121 316 122 0
122 -302 -317 0
122 -301 317 0
-122 301 317 0
-122 302 -317 0
123 -304 -317 0
123 -303 317 0
-123 303 317 0
-123 304 -317 0
-124 312 125 0
124 -312 0
124 -125 0
-125 11 126 0
125 -11 0
125 -126 0
-126 309 310 311 14 0
126 -14 0
126 -311 0
126 -309 0
126 -310 0
-127 293 85 128 0
127 -128 0
127 -85 0
127 -293 0
-128 16 129 0
128 -16 0
128 -129 0
-129 77 130 0
129 -77 0
129 -130 0
-130 21 92 0
130 -21 0
130 -92 0
131 39 108 109 -132 0
-131 -109 0
-131 132 0
-131 -39 0
-131 -108 0
-132 279 133 0
-132 278 135 0
-132 133 135 0
-132 278 279 0
132 -278 -133 0
132 -279 -135 0
133 -315 -134 0
133 315 -103 0
-133 -315 134 0
-133 315 103 0
-134 315 316 -317 0
-134 314 316 317 0
134 -316 0
134 -314 317 0
134 -315 -317 0
135 315 -34 0
135 -315 316 317 0
-135 -315 -316 0
-135 315 34 0
-135 -315 -317 0
-136 137 177 185 191 0
136 -191 0
136 -185 0
136 -137 0
136 -177 0
137 12 17 138 -141 0
-137 -138 0
-137 141 0
-137 -12 0
-137 -17 0
-138 63 139 140 0
138 -63 0
138 -139 0
138 -140 0
-139 305 306 92 0
139 -92 0
139 -306 0
139 -305 0
-140 294 295 16 0
140 -16 0
140 -295 0
140 -294 0
-141 142 162 0
-141 142 163 0
141 -142 0
141 -162 -163 0
142 -313 -143 -159 0
142 313 -143 -145 0
-142 143 0
-142 -313 159 0
-142 313 145 0
143 -254 308 309 144 0
-143 -144 0
-143 -309 0
-143 254 0
-143 -308 0
-144 307 310 311 312 0
144 -312 0
144 -311 0
144 -307 0
144 -310 0
145 314 -146 0
145 -314 -153 0
-145 -314 153 0
-145 314 146 0
146 315 -147 0
146 -315 -150 0
-146 -315 150 0
-146 315 147 0
147 316 -148 0
147 -316 -149 0
-147 -316 149 0
-147 316 148 0
148 -287 -317 0
148 -286 317 0
-148 286 317 0
-148 287 -317 0
149 -289 -317 0
149 -288 317 0
-149 288 317 0
-149 289 -317 0
150 316 -151 0
150 -316 -152 0
-150 -316 152 0
-150 316 151 0
151 -291 -317 0
151 -290 317 0
-151 290 317 0
-151 291 -317 0
152 -293 -317 0
152 -292 317 0
-152 292 317 0
-152 293 -317 0
153 315 -154 0
153 -315 -157 0
-153 -315 157 0
-153 315 154 0
154 316 -155 0
154 -316 -156 0
-154 -316 156 0
-154 316 155 0
155 -295 -317 0
155 -294 317 0
-155 294 317 0
-155 295 -317 0
156 -297 -317 0
156 -296 317 0
-156 296 317 0
-156 297 -317 0
157 -316 -81 0
157 316 -158 0
-157 316 158 0
-157 -316 81 0
158 -299 -317 0
158 -298 317 0
-158 298 317 0
-158 299 -317 0
159 -314 -133 0
159 314 -160 0
-159 314 160 0
-159 -314 133 0
160 -315 -102 0
160 315 -161 0
-160 315 161 0
-160 -315 102 0
161 -316 -53 0
161 316 -82 0
-161 316 82 0
-161 -316 53 0
162 -255 308 309 144 0
-162 -144 0
-162 -309 0
-162 255 0
-162 -308 0
-163 -313 174 0
-163 313 164 0
163 313 -164 0
163 -313 -174 0
164 314 -165 0
164 -314 -171 0
-164 -314 171 0
-164 314 165 0
165 315 -166 0
165 -315 -169 0
-165 -315 169 0
-165 315 166 0
166 316 -167 0
166 -316 -168 0
-166 -316 168 0
-166 316 167 0
167 -288 -317 0
167 -287 317 0
-167 287 317 0
-167 288 -317 0
168 -290 -317 0
168 -289 317 0
-168 289 317 0
-168 290 -317 0
169 -316 -114 0
169 316 -170 0
-169 316 170 0
-169 -316 114 0
170 -292 -317 0
170 -291 317 0
-170 291 317 0
-170 292 -317 0
171 315 -172 0
171 -315 -173 0
-171 -315 173 0
-171 315 172 0
172 316 -115 0
172 -316 -117 0
-172 -316 117 0
-172 316 115 0
173 316 -118 0
173 -316 -122 0
-173 -316 122 0
-173 316 118 0
174 -314 -135 0
174 314 -175 0
-174 314 175 0
-174 -314 135 0
175 -315 -31 0
175 315 -176 0
-175 315 176 0
-175 -315 31 0
176 -316 -67 0
176 316 -123 0
-176 316 123 0
-176 -316 67 0
177 178 -180 183 0
177 178 -182 183 0
-177 -183 0
-177 -178 0
-177 180 182 0
-178 179 8 20 91 0
178 -91 0
178 -179 0
178 -20 0
178 -8 0
-179 311 312 313 0
179 -311 0
179 -313 0
179 -312 0
180 -267 314 -181 0
180 -267 -314 -30 0
-180 267 0
-180 -314 30 0
-180 314 181 0
181 315 -173 0
181 -315 -176 0
-181 -315 176 0
-181 315 173 0
182 -269 314 -120 0
182 -269 -314 -37 0
-182 269 0
-182 -314 37 0
-182 314 120 0
-183 12 19 88 184 0
183 -184 0
183 -12 0
183 -88 0
183 -19 0
-184 11 87 0
184 -11 0
184 -87 0
185 313 -186 -187 0
185 -313 -97 -186 0
-185 186 0
-185 -313 97 0
-185 313 187 0
186 -260 312 125 127 0
-186 -127 0
-186 260 0
-186 -125 0
-186 -312 0
187 -314 -79 0
187 314 -188 0
-187 314 188 0
-187 -314 79 0
188 -315 -189 0
188 315 -190 0
-188 315 190 0
-188 -315 189 0
189 316 -156 0
189 -316 -158 0
-189 -316 158 0
-189 316 156 0
190 316 -152 0
190 -316 -155 0
-190 -316 155 0
-190 316 152 0
-191 192 200 207 0
-191 192 203 207 0
191 -192 0
191 -207 0
191 -200 -203 0
192 -264 -193 197 199 0
-192 -199 0
-192 264 0
-192 -197 0
-192 193 0
193 314 93 -194 0
193 -51 93 -194 0
-193 194 0
-193 -93 0
-193 -314 51 0
194 86 -195 0
-194 -86 0
-194 195 0
195 313 -196 0
195 -313 -107 0
195 313 -314 0
-195 -313 107 0
-195 313 314 196 0
196 -315 -80 0
196 315 -189 0
-196 315 189 0
-196 -315 80 0
-197 91 198 0
197 -91 0
197 -198 0
-198 312 77 0
198 -312 0
198 -77 0
-199 19 126 0
199 -19 0
199 -126 0
200 -266 11 201 202 0
-200 -202 0
-200 266 0
-200 -201 0
-200 -11 0
-201 290 291 16 198 0
201 -290 0
201 -198 0
201 -16 0
201 -291 0
-202 21 199 0
202 -21 0
202 -199 0
203 -313 -25 206 0
203 313 -204 206 0
-203 -206 0
-203 -313 25 0
-203 313 204 0
204 -314 -101 0
204 314 -205 0
-204 314 205 0
-204 -314 101 0
205 315 -157 0
205 -315 -161 0
-205 -315 161 0
-205 315 157 0
-206 63 92 0
206 -63 0
206 -92 0
207 313 -208 -211 0
207 -106 -208 -211 0
-207 211 0
-207 208 0
-207 -313 106 0
208 -209 210 0
208 -78 210 0
-208 -210 0
-208 78 209 0
209 315 -116 0
209 -315 -121 0
-209 -315 121 0
-209 315 116 0
-210 8 184 197 202 0
210 -202 0
210 -8 0
210 -197 0
210 -184 0
211 -265 -65 0
211 -265 314 0
-211 265 0
-211 -314 65 0
212 8 -213 0
212 8 -231 0
212 8 -222 0
-212 -8 0
-212 213 222 231 0
213 313 -214 -219 0
213 -313 -50 -214 0
-213 214 0
-213 -313 50 0
-213 313 219 0
214 -256 215 216 218 0
-214 -218 0
-214 256 0
-214 -216 0
-214 -215 0
-215 307 308 0
215 -307 0
215 -308 0
-216 21 87 139 217 0
216 -217 0
216 -21 0
216 -139 0
216 -87 0
-217 295 16 0
217 -295 0
217 -16 0
-218 311 6 49 198 0
218 -311 0
218 -198 0
218 -49 0
218 -6 0
219 -314 -196 0
219 314 -220 0
-219 314 220 0
-219 -314 196 0
220 -315 -190 0
220 315 -221 0
-220 315 221 0
-220 -315 190 0
221 316 -149 0
221 -316 -151 0
-221 -316 151 0
-221 316 149 0
-222 159 226 0
-222 223 226 0
-222 -90 226 0
222 -226 0
222 90 -159 -223 0
223 305 5 12 -224 0
-223 -305 0
-223 224 0
-223 -12 0
-223 -5 0
224 -270 302 44 225 0
-224 -225 0
-224 270 0
-224 -44 0
-224 -302 0
-225 10 18 0
225 -10 0
225 -18 0
226 126 201 227 -228 0
-226 228 0
-226 -126 0
-226 -227 0
-226 -201 0
-227 295 10 -175 0
-227 295 314 10 0
227 -295 0
227 -10 0
227 -314 175 0
228 49 130 229 -230 0
-228 230 0
-228 -49 0
-228 -130 0
-228 -229 0
229 -313 -314 0
229 -313 135 0
-229 313 0
-229 314 -135 0
230 -263 -171 0
230 -263 -78 0
-230 263 0
-230 78 171 0
-231 -10 242 248 0
-231 232 242 248 0
231 -248 0
231 -242 0
231 10 -232 0
-232 233 239 0
-232 78 233 238 0
232 -233 0
232 -78 -239 0
232 -238 -239 0
233 313 -234 -236 0
233 -313 -99 -234 0
-233 234 0
-233 -313 99 0
-233 313 236 0
234 -258 312 18 235 0
-234 -235 0
-234 258 0
-234 -18 0
-234 -312 0
-235 126 129 140 0
235 -126 0
235 -129 0
235 -140 0
236 -314 -205 0
236 314 -237 0
-236 314 237 0
-236 -314 205 0
237 315 -150 0
237 -315 -154 0
-237 -315 154 0
-237 315 150 0
238 315 -169 0
238 -315 -172 0
-238 -315 172 0
-238 315 169 0
239 18 124 128 -240 0
-239 240 0
-239 -18 0
-239 -128 0
-239 -124 0
240 -259 314 241 0
240 -259 -181 241 0
-240 259 0
-240 -241 0
-240 -314 181 0
241 -313 -314 0
241 -313 30 0
-241 313 0
-241 314 -30 0
242 -257 198 243 -244 0
-242 244 0
-242 257 0
-242 -243 0
-242 -198 0
-243 126 225 0
243 -126 0
243 -225 0
244 313 90 -245 0
244 -313 -64 90 0
-244 -90 0
-244 -313 64 0
-244 313 245 0
245 -314 -209 0
245 314 -246 0
-245 314 246 0
-245 -314 209 0
246 -315 -113 0
246 315 -247 0
-246 315 247 0
-246 -315 113 0
247 316 -168 0
247 -316 -170 0
-247 -316 170 0
-247 316 168 0
-248 250 252 0
-248 -249 252 0
-248 251 252 0
248 -252 0
248 249 -250 -251 0
249 -313 -314 0
249 -313 133 0
-249 313 0
-249 314 -133 0
250 -78 93 243 0
250 93 -153 243 0
-250 -243 0
-250 -93 0
-250 78 153 0
251 -262 314 197 0
251 -262 -160 197 0
-251 -197 0
-251 262 0
-251 -314 160 0
252 -271 4 -174 253 0
-252 -253 0
-252 271 0
-252 174 0
-252 -4 0
-253 41 44 72 87 0
253 -87 0
253 -41 0
253 -72 0
253 -44 0
-318 0
2 0

